561 562 563 564 565 566 567 27 26 25 24 21 14 15 16 18 19 20 568 569 570 474 473 472 471 470 469 468 467 466 571 460 459 458 457 456 455 454 439 443 444 445 442 446 447 448 449 440 441 450 451 312 313 311 310 309 308 505 504 503 502 498 501 500 499 453 452 461 462 463 464 465 496 497 495 494 524 493 492 491 490 529 528 527 526 525 523 522 521 520 518 519 517 516 515 514 513 512 511 510 509 237 236 235 234 232 233 530 531 489 532 533 488 534 535 487 486 485 484 536 483 481 482 475 476 480 479 477 478 539 537 538 540 176 177 178 187 188 186 229 230 231 228 227 189 190 192 191 226 225 224 223 222 221 220 218 219 193 194 195 196 197 184 185 183 182 179 181 180 169 171 170 172 175 174 173 108 109 107 542 541 543 544 547 546 545 548 549 550 551 101 102 100 99 552 553 554 556 557 41 40 39 42 43 44 45 46 47 48 49 54 53 55 56 83 84 51 52 50 85 86 87 90 92 91 555 93 94 89 88 77 78 62 79 80 81 82 57 58 59 60 61 63 64 76 75 74 73 119 118 95 96 97 98 103 104 105 106 117 121 120 122 123 71 72 65 66 67 68 70 69 124 125 126 127 128 116 115 114 110 111 112 161 113 131 130 129 132 133 134 135 136 137 138 139 140 141 151 150 149 152 148 147 142 143 144 146 145 158 157 159 156 155 153 154 160 162 168 163 167 166 164 165 203 204 202 201 200 199 198 205 206 207 208 209 210 211 212 213 214 215 217 216 246 247 245 238 239 240 243 244 242 241 248 249 250 251 252 254 253 255 256 257 260 261 262 263 264 265 266 298 299 258 259 300 301 302 508 507 506 307 303 304 306 305 318 319 320 321 317 316 314 315 377 378 380 379 376 375 374 373 372 371 396 395 394 393 391 392 381 390 389 388 387 386 385 383 384 409 404 405 408 407 406 399 397 398 370 369 368 365 367 366 329 328 327 326 325 323 322 324 297 296 295 294 293 270 268 267 271 269 272 273 274 275 292 291 290 289 288 276 277 278 279 282 281 280 287 286 285 284 283 334 335 336 337 338 339 333 332 331 330 340 341 342 343 344 345 346 364 363 361 362 347 348 349 350 351 415 416 414 413 352 353 354 357 358 359 360 401 400 403 402 356 355 412 411 410 418 417 419 420 421 422 423 424 425 382 426 427 428 429 431 430 432 433 434 435 436 438 437 3 2 1 4 0 573 572 5 6 7 8 17 9 10 11 13 12 23 22 28 29 31 30 32 36 37 38 35 33 34 558 559 560